33D32945 STP File, STP Format Version 1.0

SECTION Comment
Name    "cancer7_6D"
Creator "S. A. Chowdhury, A. A. Schaffer, R. Schwartz"
Problem "Rectilinear Steiner Minimum Tree"
Remark  "Derived from a problem in (prostate) cancer research"
END

SECTION Graph 
Nodes 109
END

SECTION Coordinates
DDDDDD 1 2 2 2 2 2 2 
DDDDDD 2 0 1 0 1 0 2 
DDDDDD 3 1 1 1 0 1 2 
DDDDDD 4 2 2 0 0 2 2 
DDDDDD 5 3 2 1 2 2 1 
DDDDDD 6 1 1 1 0 2 1 
DDDDDD 7 1 2 1 1 2 2 
DDDDDD 8 1 3 1 0 1 1 
DDDDDD 9 1 3 1 0 2 2 
DDDDDD 10 2 0 2 0 2 2 
DDDDDD 11 3 3 2 0 2 2 
DDDDDD 12 1 2 1 0 2 1 
DDDDDD 13 1 2 1 2 2 2 
DDDDDD 14 1 2 2 2 2 2 
DDDDDD 15 2 1 2 2 2 2 
DDDDDD 16 2 2 1 0 1 1 
DDDDDD 17 2 2 1 1 2 1 
DDDDDD 18 2 2 1 2 2 2 
DDDDDD 19 2 2 2 2 1 2 
DDDDDD 20 2 2 2 2 2 1 
DDDDDD 21 2 3 1 0 1 2 
DDDDDD 22 2 3 1 0 3 2 
DDDDDD 23 2 3 2 0 1 2 
DDDDDD 24 3 0 1 0 1 2 
DDDDDD 25 3 2 2 0 2 2 
DDDDDD 26 3 3 1 0 2 2 
DDDDDD 27 3 3 2 1 2 2 
DDDDDD 28 3 4 1 0 1 2 
DDDDDD 29 3 4 2 0 3 2 
DDDDDD 30 2 1 2 0 1 2 
DDDDDD 31 1 0 2 1 2 2 
DDDDDD 32 1 2 2 0 1 2 
DDDDDD 33 2 1 1 0 2 1 
DDDDDD 34 2 1 2 0 2 2 
DDDDDD 35 2 1 2 2 1 1 
DDDDDD 36 2 2 2 0 2 2 
DDDDDD 37 2 3 2 0 2 2 
DDDDDD 38 2 4 2 0 1 2 
DDDDDD 39 3 1 2 0 1 0 
DDDDDD 40 3 1 2 0 2 2 
DDDDDD 41 3 3 2 0 2 1 
DDDDDD 42 3 3 2 0 2 3 
DDDDDD 43 3 3 2 2 1 2 
DDDDDD 44 3 4 2 0 1 2 
DDDDDD 45 0 1 1 2 2 0 
DDDDDD 46 0 2 0 2 2 2 
DDDDDD 47 0 2 1 0 1 2 
DDDDDD 48 0 2 2 2 2 2 
DDDDDD 49 1 1 2 0 2 1 
DDDDDD 50 1 1 2 2 1 2 
DDDDDD 51 1 1 2 2 2 2 
DDDDDD 52 1 2 2 0 2 1 
DDDDDD 53 1 2 2 0 2 2 
DDDDDD 54 1 3 2 0 1 2 
DDDDDD 55 2 0 2 0 1 0 
DDDDDD 56 2 2 1 2 1 2 
DDDDDD 57 2 2 1 2 2 1 
DDDDDD 58 2 2 2 0 0 2 
DDDDDD 59 2 2 2 0 1 2 
DDDDDD 60 2 2 2 2 1 1 
DDDDDD 61 2 2 2 2 2 0 
DDDDDD 62 2 2 2 2 2 3 
DDDDDD 63 2 2 2 2 3 2 
DDDDDD 64 2 2 2 3 2 2 
DDDDDD 65 2 2 2 3 2 3 
DDDDDD 66 2 3 1 0 2 2 
DDDDDD 67 2 3 2 0 1 1 
DDDDDD 68 2 3 2 2 1 2 
DDDDDD 69 2 3 2 2 2 2 
DDDDDD 70 2 4 2 2 2 2 
DDDDDD 71 2 4 2 2 2 3 
DDDDDD 72 3 2 1 0 1 3 
DDDDDD 73 3 2 2 0 1 1 
DDDDDD 74 3 2 2 0 1 2 
DDDDDD 75 3 2 2 0 3 2 
DDDDDD 76 3 2 2 2 1 2 
DDDDDD 77 3 2 2 2 2 2 
DDDDDD 78 3 2 2 2 3 2 
DDDDDD 79 3 3 1 0 0 1 
DDDDDD 80 3 3 1 0 1 1 
DDDDDD 81 3 3 2 0 1 2 
DDDDDD 82 3 3 2 0 1 3 
DDDDDD 83 3 3 2 0 2 4 
DDDDDD 84 3 3 2 0 3 2 
DDDDDD 85 3 3 2 2 2 2 
DDDDDD 86 3 3 3 0 2 2 
DDDDDD 87 3 4 2 0 2 2 
DDDDDD 88 3 4 2 0 2 3 
DDDDDD 89 4 2 2 3 4 2 
DDDDDD 90 4 3 2 0 1 2 
DDDDDD 91 4 3 2 0 2 1 
DDDDDD 92 2 4 2 0 3 4 
DDDDDD 93 3 3 2 2 3 2 
DDDDDD 94 2 3 2 0 2 1 
DDDDDD 95 3 2 3 0 2 2 
DDDDDD 96 5 4 2 0 3 4 
DDDDDD 97 6 2 3 2 2 2 
DDDDDD 98 2 2 2 3 4 3 
DDDDDD 99 4 5 3 0 2 2 
DDDDDD 100 5 4 3 0 3 4 
DDDDDD 101 5 5 4 0 4 3 
DDDDDD 102 5 3 4 0 3 2 
DDDDDD 103 5 4 3 0 4 3 
DDDDDD 104 4 5 4 0 3 3 
DDDDDD 105 5 4 4 0 3 3 
DDDDDD 106 5 5 4 1 3 3 
DDDDDD 107 3 3 3 3 3 4 
DDDDDD 108 4 3 4 0 4 3 
DDDDDD 109 4 4 4 0 2 2 
END

EOF